70448
1 0 1 0 0 1 0 1 1 0 0 0 1 1 1 0 0 0 1 1 0 1 0 1 1 1 1 0 1 0 
28 26 21 2 13 0 24 23 2 0 14 7 21 14 7 21 2 21 7 24 18 2 26 23 26 18 24 19 23 21 26 25 26 14 18 18 19 8 24 24 24 13 19 13 26 14 14 8 19 12 28 2 5 0 13 18 19 5 13 21 23 23 7 8 13 8 28 5 8 18 13 19 21 21 5 14 19 23 8 13 13 19 2 0 28 8 23 8 21 21 7 12 25 18 25 8 13 26 12 12 14 18 26 0 12 2 13 2 24 24 21 28 0 7 14 0 2 12 12 26 2 7 28 23 26 13 24 19 8 13 19 12 8 19 0 2 2 12 12 19 19 5 12 7 23 13 14 7 24 5 5 5 18 25 23 8 18 23 14 21 28 12 23 28 13 18 5 7 0 5 26 7 0 14 5 21 24 26 23 18 28 21 0 12 18 14 28 13 7 2 24 24 14 28 7 12 26 21 28 12 
